173746.4,50.2,62.26
149443.92,58.37,72.38
189773.08,45.96,57.0
184323.74,47.32,58.68
168517.58,51.76,64.19
151549.71,57.56,71.37
177097.62,49.25,61.08
161680.26,53.95,66.9
169898.7,51.34,63.67
176971.54,49.29,61.12
169398.32,51.49,63.85
166553.88,52.37,64.94
185285.87,47.08,58.38
157612.3,55.34,68.63
157692.29,55.31,68.59
169734.9,51.39,63.73
172858.21,50.46,62.58
167944.63,51.94,64.41
181146.23,48.15,59.71
149285.83,58.43,72.46
